c Maximum weighted independent set instances generated from exactcolors.
c scalef: 7642290 .
c An independent set of value > 7642290 defines an improving stable sets for coloring.
p edge 281 1046
e 1 2
e 1 4
e 1 13
e 1 15
e 1 58
e 1 60
e 1 69
e 1 71
e 2 3
e 2 12
e 2 14
e 2 57
e 2 59
e 2 68
e 2 70
e 3 6
e 3 13
e 3 17
e 3 58
e 3 62
e 3 69
e 3 73
e 4 5
e 4 12
e 4 16
e 4 57
e 4 61
e 4 68
e 4 72
e 5 8
e 5 15
e 5 19
e 5 60
e 5 64
e 5 71
e 5 75
e 6 7
e 6 14
e 6 18
e 6 59
e 6 63
e 6 70
e 6 74
e 7 10
e 7 17
e 7 21
e 7 62
e 7 66
e 7 73
e 7 77
e 8 9
e 8 16
e 8 20
e 8 61
e 8 65
e 8 72
e 8 76
e 9 11
e 9 19
e 9 22
e 9 64
e 9 67
e 9 75
e 9 78
e 10 11
e 10 18
e 10 22
e 10 63
e 10 67
e 10 74
e 10 78
e 11 20
e 11 21
e 11 65
e 11 66
e 11 76
e 11 77
e 12 24
e 12 26
e 12 58
e 12 60
e 12 80
e 12 82
e 13 23
e 13 25
e 13 57
e 13 59
e 13 79
e 13 81
e 14 24
e 14 28
e 14 58
e 14 62
e 14 80
e 14 84
e 15 23
e 15 27
e 15 57
e 15 61
e 15 79
e 15 83
e 16 26
e 16 30
e 16 60
e 16 64
e 16 82
e 16 86
e 17 25
e 17 29
e 17 59
e 17 63
e 17 81
e 17 85
e 18 28
e 18 32
e 18 62
e 18 66
e 18 84
e 18 88
e 19 27
e 19 31
e 19 61
e 19 65
e 19 83
e 19 87
e 20 30
e 20 33
e 20 64
e 20 67
e 20 86
e 20 89
e 21 29
e 21 33
e 21 63
e 21 67
e 21 85
e 21 89
e 22 31
e 22 32
e 22 65
e 22 66
e 22 87
e 22 88
e 23 35
e 23 37
e 23 69
e 23 71
e 23 91
e 23 93
e 24 34
e 24 36
e 24 68
e 24 70
e 24 90
e 24 92
e 25 35
e 25 39
e 25 69
e 25 73
e 25 91
e 25 95
e 26 34
e 26 38
e 26 68
e 26 72
e 26 90
e 26 94
e 27 37
e 27 41
e 27 71
e 27 75
e 27 93
e 27 97
e 28 36
e 28 40
e 28 70
e 28 74
e 28 92
e 28 96
e 29 39
e 29 43
e 29 73
e 29 77
e 29 95
e 29 99
e 30 38
e 30 42
e 30 72
e 30 76
e 30 94
e 30 98
e 31 41
e 31 44
e 31 75
e 31 78
e 31 97
e 31 100
e 32 40
e 32 44
e 32 74
e 32 78
e 32 96
e 32 100
e 33 42
e 33 43
e 33 76
e 33 77
e 33 98
e 33 99
e 34 46
e 34 48
e 34 80
e 34 82
e 34 102
e 34 104
e 35 45
e 35 47
e 35 79
e 35 81
e 35 101
e 35 103
e 36 46
e 36 50
e 36 80
e 36 84
e 36 102
e 36 106
e 37 45
e 37 49
e 37 79
e 37 83
e 37 101
e 37 105
e 38 48
e 38 52
e 38 82
e 38 86
e 38 104
e 38 108
e 39 47
e 39 51
e 39 81
e 39 85
e 39 103
e 39 107
e 40 50
e 40 54
e 40 84
e 40 88
e 40 106
e 40 110
e 41 49
e 41 53
e 41 83
e 41 87
e 41 105
e 41 109
e 42 52
e 42 55
e 42 86
e 42 89
e 42 108
e 42 111
e 43 51
e 43 55
e 43 85
e 43 89
e 43 107
e 43 111
e 44 53
e 44 54
e 44 87
e 44 88
e 44 109
e 44 110
e 45 56
e 45 91
e 45 93
e 45 112
e 46 56
e 46 90
e 46 92
e 46 112
e 47 56
e 47 91
e 47 95
e 47 112
e 48 56
e 48 90
e 48 94
e 48 112
e 49 56
e 49 93
e 49 97
e 49 112
e 50 56
e 50 92
e 50 96
e 50 112
e 51 56
e 51 95
e 51 99
e 51 112
e 52 56
e 52 94
e 52 98
e 52 112
e 53 56
e 53 97
e 53 100
e 53 112
e 54 56
e 54 96
e 54 100
e 54 112
e 55 56
e 55 98
e 55 99
e 55 112
e 56 101
e 56 102
e 56 103
e 56 104
e 56 105
e 56 106
e 56 107
e 56 108
e 56 109
e 56 110
e 56 111
e 57 114
e 57 116
e 57 125
e 57 127
e 58 113
e 58 115
e 58 124
e 58 126
e 59 114
e 59 118
e 59 125
e 59 129
e 60 113
e 60 117
e 60 124
e 60 128
e 61 116
e 61 120
e 61 127
e 61 131
e 62 115
e 62 119
e 62 126
e 62 130
e 63 118
e 63 122
e 63 129
e 63 133
e 64 117
e 64 121
e 64 128
e 64 132
e 65 120
e 65 123
e 65 131
e 65 134
e 66 119
e 66 123
e 66 130
e 66 134
e 67 121
e 67 122
e 67 132
e 67 133
e 68 114
e 68 116
e 68 136
e 68 138
e 69 113
e 69 115
e 69 135
e 69 137
e 70 114
e 70 118
e 70 136
e 70 140
e 71 113
e 71 117
e 71 135
e 71 139
e 72 116
e 72 120
e 72 138
e 72 142
e 73 115
e 73 119
e 73 137
e 73 141
e 74 118
e 74 122
e 74 140
e 74 144
e 75 117
e 75 121
e 75 139
e 75 143
e 76 120
e 76 123
e 76 142
e 76 145
e 77 119
e 77 123
e 77 141
e 77 145
e 78 121
e 78 122
e 78 143
e 78 144
e 79 125
e 79 127
e 79 147
e 79 149
e 80 124
e 80 126
e 80 146
e 80 148
e 81 125
e 81 129
e 81 147
e 81 151
e 82 124
e 82 128
e 82 146
e 82 150
e 83 127
e 83 131
e 83 149
e 83 153
e 84 126
e 84 130
e 84 148
e 84 152
e 85 129
e 85 133
e 85 151
e 85 155
e 86 128
e 86 132
e 86 150
e 86 154
e 87 131
e 87 134
e 87 153
e 87 156
e 88 130
e 88 134
e 88 152
e 88 156
e 89 132
e 89 133
e 89 154
e 89 155
e 90 136
e 90 138
e 90 158
e 90 160
e 91 135
e 91 137
e 91 157
e 91 159
e 92 136
e 92 140
e 92 158
e 92 162
e 93 135
e 93 139
e 93 157
e 93 161
e 94 138
e 94 142
e 94 160
e 94 164
e 95 137
e 95 141
e 95 159
e 95 163
e 96 140
e 96 144
e 96 162
e 96 166
e 97 139
e 97 143
e 97 161
e 97 165
e 98 142
e 98 145
e 98 164
e 98 167
e 99 141
e 99 145
e 99 163
e 99 167
e 100 143
e 100 144
e 100 165
e 100 166
e 101 147
e 101 149
e 101 168
e 102 146
e 102 148
e 102 168
e 103 147
e 103 151
e 103 168
e 104 146
e 104 150
e 104 168
e 105 149
e 105 153
e 105 168
e 106 148
e 106 152
e 106 168
e 107 151
e 107 155
e 107 168
e 108 150
e 108 154
e 108 168
e 109 153
e 109 156
e 109 168
e 110 152
e 110 156
e 110 168
e 111 154
e 111 155
e 111 168
e 112 157
e 112 158
e 112 159
e 112 160
e 112 161
e 112 162
e 112 163
e 112 164
e 112 165
e 112 166
e 112 167
e 113 170
e 113 172
e 113 181
e 113 183
e 114 169
e 114 171
e 114 180
e 114 182
e 115 170
e 115 174
e 115 181
e 115 185
e 116 169
e 116 173
e 116 180
e 116 184
e 117 172
e 117 176
e 117 183
e 117 187
e 118 171
e 118 175
e 118 182
e 118 186
e 119 174
e 119 178
e 119 185
e 119 189
e 120 173
e 120 177
e 120 184
e 120 188
e 121 176
e 121 179
e 121 187
e 121 190
e 122 175
e 122 179
e 122 186
e 122 190
e 123 177
e 123 178
e 123 188
e 123 189
e 124 170
e 124 172
e 124 192
e 124 194
e 125 169
e 125 171
e 125 191
e 125 193
e 126 170
e 126 174
e 126 192
e 126 196
e 127 169
e 127 173
e 127 191
e 127 195
e 128 172
e 128 176
e 128 194
e 128 198
e 129 171
e 129 175
e 129 193
e 129 197
e 130 174
e 130 178
e 130 196
e 130 200
e 131 173
e 131 177
e 131 195
e 131 199
e 132 176
e 132 179
e 132 198
e 132 201
e 133 175
e 133 179
e 133 197
e 133 201
e 134 177
e 134 178
e 134 199
e 134 200
e 135 181
e 135 183
e 135 203
e 135 205
e 136 180
e 136 182
e 136 202
e 136 204
e 137 181
e 137 185
e 137 203
e 137 207
e 138 180
e 138 184
e 138 202
e 138 206
e 139 183
e 139 187
e 139 205
e 139 209
e 140 182
e 140 186
e 140 204
e 140 208
e 141 185
e 141 189
e 141 207
e 141 211
e 142 184
e 142 188
e 142 206
e 142 210
e 143 187
e 143 190
e 143 209
e 143 212
e 144 186
e 144 190
e 144 208
e 144 212
e 145 188
e 145 189
e 145 210
e 145 211
e 146 192
e 146 194
e 146 214
e 146 216
e 147 191
e 147 193
e 147 213
e 147 215
e 148 192
e 148 196
e 148 214
e 148 218
e 149 191
e 149 195
e 149 213
e 149 217
e 150 194
e 150 198
e 150 216
e 150 220
e 151 193
e 151 197
e 151 215
e 151 219
e 152 196
e 152 200
e 152 218
e 152 222
e 153 195
e 153 199
e 153 217
e 153 221
e 154 198
e 154 201
e 154 220
e 154 223
e 155 197
e 155 201
e 155 219
e 155 223
e 156 199
e 156 200
e 156 221
e 156 222
e 157 203
e 157 205
e 157 224
e 158 202
e 158 204
e 158 224
e 159 203
e 159 207
e 159 224
e 160 202
e 160 206
e 160 224
e 161 205
e 161 209
e 161 224
e 162 204
e 162 208
e 162 224
e 163 207
e 163 211
e 163 224
e 164 206
e 164 210
e 164 224
e 165 209
e 165 212
e 165 224
e 166 208
e 166 212
e 166 224
e 167 210
e 167 211
e 167 224
e 168 213
e 168 214
e 168 215
e 168 216
e 168 217
e 168 218
e 168 219
e 168 220
e 168 221
e 168 222
e 168 223
e 169 226
e 169 228
e 169 237
e 169 239
e 170 225
e 170 227
e 170 236
e 170 238
e 171 226
e 171 230
e 171 237
e 171 241
e 172 225
e 172 229
e 172 236
e 172 240
e 173 228
e 173 232
e 173 239
e 173 243
e 174 227
e 174 231
e 174 238
e 174 242
e 175 230
e 175 234
e 175 241
e 175 245
e 176 229
e 176 233
e 176 240
e 176 244
e 177 232
e 177 235
e 177 243
e 177 246
e 178 231
e 178 235
e 178 242
e 178 246
e 179 233
e 179 234
e 179 244
e 179 245
e 180 226
e 180 228
e 180 248
e 180 250
e 181 225
e 181 227
e 181 247
e 181 249
e 182 226
e 182 230
e 182 248
e 182 252
e 183 225
e 183 229
e 183 247
e 183 251
e 184 228
e 184 232
e 184 250
e 184 254
e 185 227
e 185 231
e 185 249
e 185 253
e 186 230
e 186 234
e 186 252
e 186 256
e 187 229
e 187 233
e 187 251
e 187 255
e 188 232
e 188 235
e 188 254
e 188 257
e 189 231
e 189 235
e 189 253
e 189 257
e 190 233
e 190 234
e 190 255
e 190 256
e 191 237
e 191 239
e 191 259
e 191 261
e 192 236
e 192 238
e 192 258
e 192 260
e 193 237
e 193 241
e 193 259
e 193 263
e 194 236
e 194 240
e 194 258
e 194 262
e 195 239
e 195 243
e 195 261
e 195 265
e 196 238
e 196 242
e 196 260
e 196 264
e 197 241
e 197 245
e 197 263
e 197 267
e 198 240
e 198 244
e 198 262
e 198 266
e 199 243
e 199 246
e 199 265
e 199 268
e 200 242
e 200 246
e 200 264
e 200 268
e 201 244
e 201 245
e 201 266
e 201 267
e 202 248
e 202 250
e 202 270
e 202 272
e 203 247
e 203 249
e 203 269
e 203 271
e 204 248
e 204 252
e 204 270
e 204 274
e 205 247
e 205 251
e 205 269
e 205 273
e 206 250
e 206 254
e 206 272
e 206 276
e 207 249
e 207 253
e 207 271
e 207 275
e 208 252
e 208 256
e 208 274
e 208 278
e 209 251
e 209 255
e 209 273
e 209 277
e 210 254
e 210 257
e 210 276
e 210 279
e 211 253
e 211 257
e 211 275
e 211 279
e 212 255
e 212 256
e 212 277
e 212 278
e 213 259
e 213 261
e 213 280
e 214 258
e 214 260
e 214 280
e 215 259
e 215 263
e 215 280
e 216 258
e 216 262
e 216 280
e 217 261
e 217 265
e 217 280
e 218 260
e 218 264
e 218 280
e 219 263
e 219 267
e 219 280
e 220 262
e 220 266
e 220 280
e 221 265
e 221 268
e 221 280
e 222 264
e 222 268
e 222 280
e 223 266
e 223 267
e 223 280
e 224 269
e 224 270
e 224 271
e 224 272
e 224 273
e 224 274
e 224 275
e 224 276
e 224 277
e 224 278
e 224 279
e 225 281
e 226 281
e 227 281
e 228 281
e 229 281
e 230 281
e 231 281
e 232 281
e 233 281
e 234 281
e 235 281
e 236 281
e 237 281
e 238 281
e 239 281
e 240 281
e 241 281
e 242 281
e 243 281
e 244 281
e 245 281
e 246 281
e 247 281
e 248 281
e 249 281
e 250 281
e 251 281
e 252 281
e 253 281
e 254 281
e 255 281
e 256 281
e 257 281
e 258 281
e 259 281
e 260 281
e 261 281
e 262 281
e 263 281
e 264 281
e 265 281
e 266 281
e 267 281
e 268 281
e 269 281
e 270 281
e 271 281
e 272 281
e 273 281
e 274 281
e 275 281
e 276 281
e 277 281
e 278 281
e 279 281
e 280 281
n 1 156543
n 2 197810
n 3 140517
n 4 58650
n 5 83527
n 6 150772
n 7 159084
n 8 107776
n 9 174192
n 10 180194
n 11 161573
n 12 164066
n 13 127975
n 14 158940
n 15 144792
n 16 173107
n 17 159314
n 18 108451
n 19 113011
n 20 41143
n 21 83871
n 22 147070
n 23 76931
n 24 73034
n 25 92735
n 26 130807
n 27 83504
n 28 146723
n 29 89442
n 30 120894
n 31 100086
n 32 109763
n 33 98037
n 34 64666
n 35 63258
n 36 0
n 37 0
n 38 113978
n 39 56380
n 40 114417
n 41 15562
n 42 110163
n 43 90598
n 44 77781
n 45 0
n 46 0
n 47 133461
n 48 127849
n 49 0
n 50 0
n 51 101323
n 52 0
n 53 92176
n 54 103882
n 55 84326
n 56 153806
n 57 138343
n 58 111248
n 59 75316
n 60 135902
n 61 118257
n 62 90723
n 63 55920
n 64 132643
n 65 64605
n 66 103069
n 67 88387
n 68 87706
n 69 14257
n 70 78454
n 71 0
n 72 70520
n 73 60569
n 74 128345
n 75 54998
n 76 122352
n 77 80330
n 78 66624
n 79 115913
n 80 75487
n 81 62451
n 82 69977
n 83 107788
n 84 21966
n 85 104848
n 86 35450
n 87 49829
n 88 79329
n 89 95007
n 90 2406
n 91 0
n 92 0
n 93 0
n 94 0
n 95 24836
n 96 0
n 97 0
n 98 20753
n 99 5766
n 100 48005
n 101 109736
n 102 73318
n 103 13437
n 104 0
n 105 46928
n 106 39466
n 107 71452
n 108 70717
n 109 0
n 110 143591
n 111 136486
n 112 0
n 113 56568
n 114 86641
n 115 82494
n 116 75531
n 117 53633
n 118 33751
n 119 81370
n 120 99954
n 121 102174
n 122 121411
n 123 38071
n 124 50647
n 125 43517
n 126 72037
n 127 116692
n 128 69010
n 129 67909
n 130 79431
n 131 5483
n 132 75007
n 133 40132
n 134 63551
n 135 0
n 136 41560
n 137 86558
n 138 57215
n 139 0
n 140 42395
n 141 0
n 142 35596
n 143 59271
n 144 37131
n 145 90569
n 146 82953
n 147 66653
n 148 28995
n 149 11111
n 150 28874
n 151 37138
n 152 0
n 153 40485
n 154 55778
n 155 6685
n 156 98816
n 157 0
n 158 0
n 159 0
n 160 0
n 161 0
n 162 0
n 163 0
n 164 0
n 165 0
n 166 0
n 167 0
n 168 212045
n 169 81370
n 170 44672
n 171 43368
n 172 33095
n 173 52340
n 174 42090
n 175 41159
n 176 59886
n 177 57686
n 178 27764
n 179 73475
n 180 56226
n 181 0
n 182 30050
n 183 0
n 184 49496
n 185 3080
n 186 29677
n 187 0
n 188 45972
n 189 8654
n 190 70443
n 191 15169
n 192 82953
n 193 74410
n 194 23560
n 195 7048
n 196 45870
n 197 5461
n 198 44925
n 199 26573
n 200 83697
n 201 0
n 202 0
n 203 0
n 204 0
n 205 0
n 206 40078
n 207 0
n 208 0
n 209 0
n 210 0
n 211 0
n 212 8484
n 213 55469
n 214 72862
n 215 64344
n 216 0
n 217 0
n 218 11402
n 219 0
n 220 28796
n 221 362
n 222 41242
n 223 55413
n 224 0
n 225 0
n 226 18616
n 227 68204
n 228 37070
n 229 53845
n 230 58040
n 231 67500
n 232 63160
n 233 38369
n 234 30867
n 235 99222
n 236 0
n 237 44617
n 238 41643
n 239 24862
n 240 5031
n 241 6720
n 242 4600
n 243 27858
n 244 27502
n 245 74814
n 246 0
n 247 0
n 248 0
n 249 0
n 250 50579
n 251 0
n 252 0
n 253 0
n 254 43543
n 255 60030
n 256 50045
n 257 0
n 258 0
n 259 60804
n 260 70879
n 261 39006
n 262 68696
n 263 44770
n 264 75751
n 265 0
n 266 14202
n 267 0
n 268 28526
n 269 0
n 270 0
n 271 0
n 272 0
n 273 0
n 274 0
n 275 0
n 276 0
n 277 0
n 278 0
n 279 0
n 280 88921
n 281 401356
